(set-logic QF_NRA)
(set-info :precision 0.00001)
(declare-fun x1 () Real)
(declare-fun x2 () Real)
(declare-fun pi () Real)
(assert (<= 1.0 x1))
(assert (<= x1 8.0))
(assert (<= 2 x2))
(assert (<= x2 10))
(assert (= pi 3.14159265))
(assert (<= 1.0 ( * pi (pow (* x1 (tan (* 0.5 (/ (* pi x2) 180.0 )))) 2.0))))
(check-sat)
(exit)
